
List of user-set options:

                                    Name   Value                used
                           compl_inf_tol = 1                     yes
                         constr_viol_tol = 1                     yes
                            dual_inf_tol = 1000                  yes
                           linear_solver = ma97                  yes
                              ma86_small = 1e-30                  no
                                  ma86_u = 0.0001                 no
                              ma97_order = best                  yes
                              ma97_small = 1e-30                 yes
                            ma97_switch1 = at_start              yes
                            ma97_switch2 = od_hd_reuse           yes
                                  ma97_u = 1e-06                 yes
                               ma97_umax = 0.5                   yes
                                max_iter = 1000                  yes
                    max_refinement_steps = 20                    yes
                    min_refinement_steps = 5                     yes
                                 mu_init = 1e-06                 yes
           mu_superlinear_decrease_power = 1.25                  yes
                   nlp_scaling_min_value = 1e-08                 yes
                        option_file_name = Preset_Case_526_pf.opt  yes
                             output_file = ./tmp/Preset_Case_526_pf.output  yes
                      print_user_options = yes                   yes
        required_infeasibility_reduction = 1                      no
                                     tol = 1e-08                 yes
                   warm_start_bound_frac = 1e-20                 yes
                   warm_start_bound_push = 1e-20                 yes
                   warm_start_init_point = yes                   yes
              warm_start_mult_bound_push = 1e-20                 yes
                warm_start_mult_init_max = 1e+40                 yes
             warm_start_slack_bound_frac = 1e-20                 yes
             warm_start_slack_bound_push = 1e-20                 yes

******************************************************************************
This program contains Ipopt, a library for large-scale nonlinear optimization.
 Ipopt is released as open source code under the Eclipse Public License (EPL).
         For more information visit http://projects.coin-or.org/Ipopt
******************************************************************************

This is Ipopt version 3.12.10, running with linear solver ma97.

Number of nonzeros in equality constraint Jacobian...:   123442
Number of nonzeros in inequality constraint Jacobian.:      213
Number of nonzeros in Lagrangian Hessian.............:    49069

Total number of variables............................:    31591
                     variables with only lower bounds:    12912
                variables with lower and upper bounds:    15130
                     variables with only upper bounds:        0
Total number of equality constraints.................:    31483
Total number of inequality constraints...............:       25
        inequality constraints with only lower bounds:        4
   inequality constraints with lower and upper bounds:        0
        inequality constraints with only upper bounds:       21

iter    objective    inf_pr   inf_du lg(mu)  ||d||  lg(rg) alpha_du alpha_pr  ls
   0 -5.2138306e+00 4.02e-03 1.02e+00  -6.0 0.00e+00    -  0.00e+00 0.00e+00   0
   1 -5.2133338e+00 3.65e-02 1.02e+00  -6.0 3.38e+05    -  9.89e-05 8.52e-05h  5
   2 -5.2146571e+00 3.65e-02 3.78e+01  -6.0 3.53e+03    -  1.68e-01 1.94e-03h  1
   3 -5.3171753e+00 9.87e-01 2.69e+02  -6.0 3.48e+03    -  9.37e-02 1.50e-01f  1
   4 -5.4800605e+00 4.45e+00 9.40e+02  -6.0 2.85e+03    -  4.93e-01 3.02e-01h  1
   5 -5.6446383e+00 1.20e+01 1.66e+03  -6.0 2.14e+03    -  7.13e-01 6.04e-01h  1
   6 -5.6463435e+00 1.18e+01 1.62e+03  -6.0 2.62e+03    -  2.12e-01 2.33e-02h  1
   7 -5.5992596e+00 3.24e-01 1.95e+04  -6.0 1.31e+02  -4.0 1.23e-05 1.00e+00h  1
   8 -5.6014375e+00 6.03e-04 4.80e+02  -6.0 5.33e+00  -4.5 3.32e-01 1.00e+00h  1
   9 -5.6629211e+00 5.48e+00 1.53e+02  -6.0 1.24e+03    -  1.26e-01 5.04e-01f  1
iter    objective    inf_pr   inf_du lg(mu)  ||d||  lg(rg) alpha_du alpha_pr  ls
  10 -5.6656043e+00 4.72e+00 1.00e+05  -6.0 1.56e+02  -5.0 7.52e-04 1.37e-01h  1
  11 -5.6603314e+00 1.42e-01 1.07e+03  -6.0 1.29e+01  -5.4 3.19e-01 1.00e+00h  1
  12 -5.6572371e+00 1.15e-02 3.10e+01  -6.0 2.49e+01  -5.9 9.33e-01 1.00e+00h  1
  13 -5.6603263e+00 5.43e-02 9.05e-01  -6.0 4.27e+01  -6.4 1.00e+00 1.00e+00h  1
  14 -5.6654571e+00 4.90e-01 2.07e+00  -6.0 1.29e+02  -6.9 9.95e-01 1.00e+00h  1
  15 -5.6730324e+00 1.28e+00 5.69e+00  -6.0 7.88e+02  -7.3 2.77e-01 2.22e-01h  1
  16 -5.6829775e+00 7.67e-01 2.61e+04  -6.0 2.06e+02  -7.8 6.76e-01 1.00e+00h  1
  17 -5.6927198e+00 1.14e+00 1.15e+04  -6.0 2.91e+03  -7.4 6.34e-02 5.00e-02h  1
  18 -5.7138170e+00 2.67e+00 3.43e+05  -6.0 3.81e+02  -7.9 2.27e-01 1.00e+00h  1
  19 -5.7171143e+00 2.41e+00 3.60e+05  -6.0 5.74e+02    -  4.22e-01 1.00e-01h  1
iter    objective    inf_pr   inf_du lg(mu)  ||d||  lg(rg) alpha_du alpha_pr  ls
  20 -5.7227499e+00 2.06e+00 1.40e+06  -6.0 7.29e+02    -  7.73e-01 1.52e-01h  1
  21r-5.7227499e+00 2.06e+00 1.00e+03   0.2 0.00e+00    -  0.00e+00 1.45e-07R  2
  22r-5.7183648e+00 2.06e+00 1.00e+03   0.2 2.33e+04    -  2.16e-08 2.36e-07f  1
  23 -5.7344023e+00 1.65e+01 3.61e+02  -6.0 8.14e+05    -  4.40e-03 7.94e-03h  1
  24 -5.9653301e+00 1.96e+01 3.59e+02  -6.0 5.48e+05    -  6.79e-04 3.55e-03h  1
  25 -5.9889236e+00 1.96e+01 3.59e+02  -6.0 4.13e+05    -  6.27e-03 7.34e-04h  1
  26 -6.1042612e+00 2.15e+01 8.03e+02  -6.0 3.87e+05    -  1.50e-02 4.19e-03h  1
  27 -6.2755470e+00 3.04e+01 3.96e+02  -6.0 2.83e+05    -  2.22e-03 1.38e-02f  1
  28 -6.2676336e+00 3.00e+01 5.60e+02  -6.0 2.57e+03  -8.3 1.36e-04 1.44e-02h  1
  29 -6.2680966e+00 3.00e+01 1.04e+03  -6.0 7.26e+04    -  3.09e-02 8.75e-04h  1
iter    objective    inf_pr   inf_du lg(mu)  ||d||  lg(rg) alpha_du alpha_pr  ls
  30 -6.2669700e+00 2.96e+01 1.94e+03  -6.0 3.13e+04    -  2.82e-02 1.42e-02h  1
  31 -6.2560766e+00 2.88e+01 5.23e+03  -6.0 1.66e+04    -  8.25e-02 2.46e-02h  1
  32 -6.2298401e+00 2.73e+01 3.46e+03  -6.0 1.46e+04    -  1.23e-02 5.17e-02h  3
  33 -6.2216175e+00 2.70e+01 7.22e+03  -6.0 1.66e+04    -  1.15e-01 1.41e-02h  2
  34 -6.0885334e+00 2.11e+01 2.50e+04  -6.0 5.82e+02    -  8.52e-01 2.25e-01h  1
  35 -6.0811328e+00 2.07e+01 2.42e+04  -6.0 2.39e+03    -  8.18e-02 1.77e-02h  1
  36 -6.0157373e+00 1.75e+01 2.30e+04  -6.0 9.22e+02    -  4.79e-02 1.58e-01h  1
  37 -5.9968124e+00 1.65e+01 2.32e+04  -6.0 8.83e+02    -  1.72e-02 5.68e-02h  1
  38 -5.9198821e+00 1.30e+01 1.92e+04  -6.0 2.85e+03    -  1.53e-01 2.58e-01h  1
  39 -5.8170847e+00 7.21e+00 1.44e+07  -6.0 1.15e+03    -  1.24e-03 5.02e-01h  1
iter    objective    inf_pr   inf_du lg(mu)  ||d||  lg(rg) alpha_du alpha_pr  ls
  40 -5.7388618e+00 2.92e+00 1.51e+04  -6.0 1.22e+03    -  4.66e-01 9.99e-01h  1
  41 -5.7443723e+00 2.15e+00 3.84e+04  -6.0 1.58e+03    -  3.80e-03 2.30e-01H  1
  42 -5.7305123e+00 1.07e+00 1.83e+04  -6.0 2.02e+02  -6.1 2.13e-02 5.16e-01h  1
  43 -5.7235898e+00 1.79e-01 2.69e+03  -6.0 2.98e+01  -5.7 5.13e-01 8.44e-01h  1
  44 -5.7258819e+00 7.21e-02 1.18e+01  -6.0 6.26e+01  -6.2 1.00e+00 1.00e+00h  1
  45 -5.7306935e+00 1.01e+00 1.92e+00  -6.0 9.49e+01  -6.6 1.00e+00 1.00e+00h  1
  46 -5.7354672e+00 1.60e+00 2.74e+00  -6.0 1.52e+02  -7.1 8.47e-01 1.00e+00h  1
  47 -5.7394150e+00 3.25e+00 7.88e+02  -6.0 1.74e+04    -  5.54e-02 8.12e-02h  2
  48 -5.7375626e+00 1.02e+00 3.77e+02  -6.0 2.98e+02    -  2.39e-01 1.00e+00h  1
  49 -5.7399843e+00 3.44e+00 2.26e+02  -6.0 3.98e+03    -  2.77e-01 3.06e-01h  1
iter    objective    inf_pr   inf_du lg(mu)  ||d||  lg(rg) alpha_du alpha_pr  ls
  50 -5.7381351e+00 9.31e-02 5.05e+01  -6.0 1.62e+02    -  5.84e-01 1.00e+00h  1
  51 -5.7378476e+00 9.50e-02 3.39e+01  -6.0 4.75e+02    -  1.00e+00 2.50e-01h  3
  52 -5.7370188e+00 9.96e-02 4.82e+01  -6.0 3.10e+02    -  1.00e+00 1.00e+00H  1
  53 -5.7369604e+00 1.38e-02 1.23e+00  -6.0 8.73e+01    -  1.00e+00 1.00e+00h  1
  54 -5.7369624e+00 7.73e-07 2.27e-03  -6.0 2.83e-01    -  1.00e+00 1.00e+00h  1
  55 -5.7369624e+00 2.93e-10 1.01e-10  -6.0 9.55e-04    -  1.00e+00 1.00e+00h  1
  56 -5.7372094e+00 6.23e+00 7.22e+01  -7.5 8.21e+02    -  5.96e-01 7.71e-01f  1
  57 -5.7371786e+00 1.79e+00 1.48e+01  -7.5 2.50e+02    -  8.69e-01 8.28e-01h  1
  58 -5.7371639e+00 2.93e-02 2.40e-01  -7.5 3.97e+01    -  1.00e+00 1.00e+00h  1
  59 -5.7371636e+00 1.54e-05 1.28e-05  -7.5 1.00e+00    -  1.00e+00 1.00e+00h  1
iter    objective    inf_pr   inf_du lg(mu)  ||d||  lg(rg) alpha_du alpha_pr  ls
  60 -5.7371636e+00 2.93e-10 1.37e-11  -7.5 2.17e-04    -  1.00e+00 1.00e+00h  1
  61 -5.7371652e+00 9.61e-03 9.41e-01  -9.0 2.95e+01    -  9.28e-01 8.26e-01h  1
  62 -5.7371654e+00 4.39e-04 2.41e-01  -9.0 5.19e+00    -  9.47e-01 1.00e+00h  1
  63 -5.7371654e+00 7.02e-10 5.00e-09  -9.0 7.07e-03    -  1.00e+00 1.00e+00h  1

Number of Iterations....: 63

                                   (scaled)                 (unscaled)
Objective...............:  -4.4821604877411856e+00   -5.7371654243087171e+00
Dual infeasibility......:   4.9989338611494056e-09    6.3986353422712391e-09
Constraint violation....:   4.4239483166228181e-10    7.0212990976870060e-10
Complementarity.........:   1.3374646217009583e-09    1.7119547157772266e-09
Overall NLP error.......:   4.9989338611494056e-09    6.3986353422712391e-09


Number of objective function evaluations             = 88
Number of objective gradient evaluations             = 64
Number of equality constraint evaluations            = 88
Number of inequality constraint evaluations          = 88
Number of equality constraint Jacobian evaluations   = 65
Number of inequality constraint Jacobian evaluations = 65
Number of Lagrangian Hessian evaluations             = 63
Total CPU secs in IPOPT (w/o function evaluations)   =    147.565
Total CPU secs in NLP function evaluations           =      2.420

EXIT: Optimal Solution Found.
